1307
2169
3752
1401
1026
3029
1478
1095
2466
2714
2395
1124
3349
3076
1545
1943
1911
262
2742
2909
1513
3415
2531
1694
2940
803
1262
1789
1448
1687
3832
785
2183
2910
2425
2886
3191
671
1791
3035
843
1756
581
3113
3662
2814
2480
1245
2819
1919
1181
626
2927
2265
1136
1779
1276
2272
2808
1299
1544
1336
2487
3087
1285
3060
3070
365
1642
2203
3342
2641
3924
3444
1936
2647
424
1639
2264
298

36715
62983
121681
20137
13809
114595
24652
21521

1114
1911
3692
611
419
3477
748
653

4734.38

44
75
145
24
17
137
30
26
111
103
89
36
120
120
42
83
83
2
125
124
50
138
117
67
125
5
36
66
69
60
146
33
108
139
106
126
118
20
49
108
17
38
5
108
134
135
79
58
136
65
51
22
105
97
52
81
38
101
114
57
34
22
117
111
42
113
129
17
66
96
141
100
148
147
53
122
11
42
77
11
